
%FILE DATA:	Soccer Computational Problem for MiniZinc Models	%
%AUTHOR:	Jack Wall	%
%CONTACT:  	116397063@umail.ucc.ie			%
%LAST UPDATE:	02/19/2020, 12:16:33						%
%DESCRIPTION: 	70 games played with 20 games left				%


n=10; %number of teams

%Games to play
games=[|10,9|7,1|5,6|4,8|6,8|7,6|8,3|1,3|3,2|1,10|1,7|9,8|10,4|6,1|6,2|7,8|4,7|5,2|4,1|5,9|];

%Initial points
iPoints=[12,20,9,17,27,17,18,17,27,26];

%POSITION CONSTRAINTS
% [|teamID, operator, position|...]
% operators index:
%  1 for =  operator
%  2 for >  operator
%  3 for >= operator
%  4 for <  operator
%  5 for <= operator
positionConstraints=[|7,3,1|9,4,3|10,3,3|5,3,4|];